webassembly/ejemplos_dzn/9/folder9_json_46.dzn
TERM = { '.', 's(2)', 's(4)', 'in_10', 'in_1', 'in_6', 'in_2', 'in_4', 'in_3', 'in_9', 'in_8', 's(1)', 's(0)', 'in_7', 'in_5', 's(3)', 'in_0'};
null = '.';
s = 9;
n = 16;
ndeps = 4;
max_registers_sz = 3;
NR = 0;
registers = [| |];
dependencies = [|'i32.store16_0', 'i32.store16_3', |'i32.store16_3', 'i32.store8_5', |'i32.store8_5', 'i32.store_6', |'i32.store_6', 'i32.load16_u_7'|];
GET_ENUM = { GET1, GET2, GET3};
SET_ENUM = { SET1, SET2, SET3};
TEE_ENUM = { TEE1, TEE2, TEE3};
N = 9;
OP = { 'i32.sub_0', 'i32.store16_0', 'i32.add_0', 'i32.sub_1', 'i32.store16_3', 'i32.const_0', 'i32.store8_5', 'i32.store_6', 'i32.load16_u_7' };
in_ops = [2, 2, 2, 2, 2, 0, 2, 2, 1 ];
out_ops = [1, 0, 1, 1, 0, 1, 0, 0, 1 ];
in1 = ['s(2)', 'in_0', 'in_2', 's(0)', 's(1)', '.', 's(4)', 'in_7', 'in_9' ];
in2 = ['in_10', 'in_1', 'in_3', 'in_4', 'in_5', '.', 'in_6', 'in_8', '.' ];
in3 = ['.', '.', '.', '.', '.', '.', '.', '.', '.' ];
out1 = ['s(3)', '.', 's(0)', 's(1)', '.', 's(4)', '.', '.', 's(2)' ];
out2 = ['.', '.', '.', '.', '.', '.', '.', '.', '.' ];
out3 = ['.', '.', '.', '.', '.', '.', '.', '.', '.' ];
comm = [false, false, true, false, false, false, false, false, false ];
gas = [1, 1, 1, 1, 1, 1, 1, 1, 1 ];
sz = [1, 1, 1, 1, 1, 1, 1, 1, 1 ];
stor = [false, true, false, false, true, false, true, true, false ];
lb = [ 1, 1, 1, 1, 1, 1, 1, 1, 1 ];
ub = [ 9, 9, 9, 9, 9, 9, 9, 9, 9 ];
startstack = [ 'in_0', 'in_1', 'in_2', 'in_3', 'in_4', 'in_5', 'in_6', 'in_7', 'in_8', 'in_9', 'in_10', null, null, null, null, null ];
endstack = [ 's(3)', null, null, null, null, null, null, null, null, null, null, null, null, null, null, null ];
